300
120 120
1 84 955
2 84 703
3 84 116
4 83 340
5 83 286
6 83 353
7 83 574
8 82 241
9 82 394
10 82 549
11 82 761
12 82 486
13 81 877
14 81 292
15 81 882
16 80 39
17 80 457
18 80 525
19 80 797
20 79 261
21 79 280
22 78 687
23 78 944
24 77 652
25 77 599
26 77 408
27 77 577
28 77 987
29 77 846
30 77 716
31 76 182
32 76 450
33 76 801
34 75 141
35 75 694
36 75 129
37 75 294
38 75 886
39 75 899
40 74 524
41 74 814
42 74 45
43 73 430
44 73 376
45 72 670
46 72 22
47 72 65
48 71 741
49 71 53
50 71 514
51 71 770
52 70 145
53 70 774
54 70 524
55 70 346
56 70 698
57 70 605
58 69 869
59 69 894
60 69 400
61 68 379
62 68 670
63 67 979
64 67 943
65 67 160
66 67 604
67 67 910
68 67 331
69 66 903
70 66 57
71 66 584
72 66 847
73 66 142
74 66 744
75 65 63
76 65 740
77 65 648
78 65 166
79 65 132
80 65 235
81 65 188
82 64 850
83 64 960
84 64 733
85 64 790
86 63 529
87 63 509
88 63 511
89 63 313
90 63 119
91 63 182
92 63 678
93 62 168
94 61 264
95 61 263
96 60 161
97 60 672
98 59 56
99 59 805
100 59 883
101 59 485
102 59 693
103 59 820
104 58 260
105 58 932
106 58 160
107 58 41
108 57 171
109 57 231
110 56 584
111 56 413
112 56 567
113 56 527
114 56 985
115 56 743
116 55 61
117 55 874
118 55 253
119 55 980
120 54 714
121 54 517
122 54 665
123 54 645
124 54 974
125 54 646
126 54 15
127 53 343
128 53 491
129 53 682
130 53 350
131 52 588
132 52 170
133 52 928
134 52 807
135 52 417
136 52 901
137 51 390
138 51 224
139 51 298
140 51 984
141 50 108
142 50 433
143 50 267
144 50 239
145 50 75
146 49 534
147 49 312
148 48 991
149 48 777
150 48 124
151 48 12
152 48 684
153 48 477
154 48 253
155 48 547
156 47 964
157 47 542
158 47 547
159 46 302
160 46 791
161 45 251
162 45 201
163 45 506
164 45 131
165 44 760
166 44 578
167 44 39
168 44 54
169 44 675
170 43 102
171 43 133
172 43 748
173 42 247
174 42 63
175 42 321
176 42 872
177 42 961
178 42 622
179 41 507
180 41 136
181 41 595
182 41 247
183 41 712
184 41 413
185 41 924
186 40 535
187 39 183
188 39 681
189 39 507
190 39 1000
191 38 235
192 38 975
193 38 448
194 38 827
195 38 677
196 38 944
197 38 712
198 38 854
199 38 984
200 38 558
201 37 66
202 37 98
203 37 405
204 37 408
205 37 367
206 37 475
207 36 589
208 36 638
209 36 704
210 36 908
211 36 466
212 36 374
213 36 766
214 35 559
215 35 152
216 35 600
217 34 974
218 34 591
219 34 511
220 34 76
221 34 162
222 34 346
223 33 921
224 33 905
225 33 590
226 32 96
227 32 696
228 32 261
229 32 864
230 32 57
231 31 22
232 31 22
233 31 421
234 30 452
235 30 862
236 30 979
237 30 947
238 30 606
239 30 609
240 29 151
241 28 161
242 28 237
243 28 885
244 28 155
245 27 226
246 27 851
247 26 53
248 26 874
249 26 738
250 26 653
251 26 191
252 25 723
253 25 617
254 24 399
255 24 941
256 24 993
257 24 993
258 24 277
259 24 322
260 23 332
261 22 494
262 22 178
263 22 724
264 21 571
265 21 467
266 21 932
267 20 56
268 20 949
269 20 37
270 19 810
271 19 303
272 18 920
273 18 983
274 18 503
275 18 824
276 17 317
277 17 326
278 16 821
279 16 900
280 16 956
281 16 351
282 16 476
283 15 650
284 15 738
285 15 240
286 15 210
287 14 567
288 14 403
289 14 652
290 14 497
291 13 730
292 13 554
293 13 688
294 13 504
295 13 810
296 12 529
297 12 39
298 12 994
299 12 785
300 12 588
